id: 1060
name: ex10
group: miplib2010
method: 2

Gurobi 7.0.2 (linux64, Matlab) logging started Tue Mar 27 05:38:30 2018


Gurobi 7.0.2 (linux64) logging started Tue Mar 27 05:38:30 2018

Optimize a model with 69608 rows, 17680 columns and 1162000 nonzeros
Coefficient statistics:
  Matrix range     [1e+00, 1e+00]
  Objective range  [1e+00, 1e+00]
  Bounds range     [1e+00, 1e+00]
  RHS range        [1e+00, 1e+00]
Presolve removed 6680 rows and 1788 columns
Presolve time: 0.38s
Presolved: 62928 rows, 15892 columns, 1031980 nonzeros

Elapsed ordering time = 5s
Elapsed ordering time = 11s
Elapsed ordering time = 15s
Elapsed ordering time = 19s
Elapsed ordering time = 20s
Elapsed ordering time = 25s
Ordering time: 25.37s

Barrier statistics:
 AA' NZ     : 1.658e+07
 Factor NZ  : 2.204e+08 (roughly 1.8 GBytes of memory)
 Factor Ops : 1.000e+12 (roughly 10 seconds per iteration)
 Threads    : 4

                  Objective                Residual
Iter       Primal          Dual         Primal    Dual     Compl     Time
   0   9.46829122e+03  4.00000000e+00  1.51e+02 0.00e+00  1.43e-01    38s
   1   2.03661623e+03 -3.31851287e+02  3.11e+01 4.88e-15  3.22e-02    47s
   2   8.01049729e+02 -1.82101106e+02  1.13e+01 5.33e-15  1.17e-02    57s
   3   1.99071701e+02 -1.43163979e+01  1.59e+00 3.22e-15  2.14e-03    66s
   4   1.23099287e+02  5.92034825e+01  3.71e-01 1.33e-15  5.40e-04    76s
   5   1.03758171e+02  9.51173347e+01  6.04e-02 4.33e-15  5.76e-05    86s
   6   1.00031817e+02  9.97770337e+01  5.12e-04 3.55e-15  2.39e-06    96s
   7   1.00000015e+02  9.99997771e+01  2.37e-07 4.44e-15  2.37e-09   105s
   8   1.00000000e+02  9.99999998e+01  7.83e-11 4.33e-15  2.36e-12   115s

Barrier solved model in 8 iterations and 114.74 seconds
Optimal objective 1.00000000e+02

Crossover log...

    1178 DPushes remaining with DInf 0.0000000e+00               115s
       0 DPushes remaining with DInf 0.0000000e+00               115s

   14618 PPushes remaining with PInf 0.0000000e+00               115s
   13300 PPushes remaining with PInf 0.0000000e+00               115s
    2492 PPushes remaining with PInf 0.0000000e+00               120s
       0 PPushes remaining with PInf 0.0000000e+00               122s

  Push phase complete: Pinf 0.0000000e+00, Dinf 2.5145441e-12    122s

Iteration    Objective       Primal Inf.    Dual Inf.      Time
   14650    1.0000000e+02   0.000000e+00   0.000000e+00    122s
   14650    1.0000000e+02   0.000000e+00   0.000000e+00    122s

Solved in 14650 iterations and 122.17 seconds
Optimal objective  1.000000000e+02
status: OPTIMAL
